%chk=1004.chk
%mem=12GB
%nprocshared=18
#opt=loose def2SVP pop=nbo bp86 em=gd3bj

1004

0 1
C   -2.355300   3.038900  -0.004900
C   -2.152600   1.545600  -0.003500
C   -0.887500   1.024800  -0.002100
C   -0.746900  -0.371000  -0.000300
C    0.529500  -0.986200   0.000200
C    1.769300  -0.176300   0.000400
C    2.356000   0.206500  -1.205800
C    1.729500  -0.203200  -2.513700
C    3.510900   0.961400  -1.199000
C    4.087300   1.338300   0.001000
C    3.510400   0.961400   1.200600
C    2.352100   0.211700   1.206900
C    1.724600  -0.197600   2.514600
C    0.578900  -2.374500   0.000800
C   -0.605000  -3.101700   0.001000
N   -1.779300  -2.516900   0.000100
C   -1.905000  -1.185400  -0.000100
N   -3.113300  -0.612500  -0.000400
C   -3.251500   0.691800   0.002300
C   -4.638200   1.282000   0.002200
H   -2.403500   3.398100  -1.032900
H   -3.286500   3.279600   0.508100
H   -1.522700   3.519100   0.509200
H   -0.021400   1.670000  -0.002800
H    1.016500   0.558400  -2.829400
H    2.506200  -0.309900  -3.271000
H    1.212700  -1.154500  -2.386800
H    3.966100   1.258400  -2.132200
H    4.991500   1.929000   0.001200
H    3.965400   1.258100   2.134100
H    1.015000   0.566500   2.832000
H    1.203800  -1.146500   2.386300
H    2.501400  -0.308800   3.271100
H    1.530700  -2.884900   0.000900
H   -0.557100  -4.180600   0.001500
H   -4.973500   1.421900   1.029800
H   -4.623500   2.244300  -0.509500
H   -5.320500   0.606500  -0.513800

