%chk=1019.chk
%mem=12GB
%nprocshared=18
#opt=loose def2SVP pop=nbo bp86 em=gd3bj

1019

0 1
C    5.119600  -1.133500   1.308700
C    4.582300  -0.693800  -0.054800
C    5.730200  -0.364000  -1.011000
C    3.653600  -1.775700  -0.658100
O    2.357700  -1.306800  -0.231800
C    2.449200   0.024400  -0.031000
C    1.266200   0.913300   0.049600
C    1.443100   2.278700   0.259600
C    0.330500   3.103800   0.333800
C   -0.924300   2.538000   0.195500
C   -1.033200   1.161100  -0.013300
C   -2.372100   0.545800  -0.163000
C   -3.410500   1.075900  -0.842900
O   -4.505400   0.304000  -0.815500
C   -4.233300  -0.899100  -0.042200
C   -5.163100  -0.976000   1.170400
C   -4.394900  -2.143900  -0.917100
C   -2.790200  -0.749900   0.400000
N   -2.087100  -1.571700   1.116700
N    0.049800   0.401000  -0.084600
N    3.666200   0.454800   0.085100
H    5.726600  -0.334600   1.734800
H    4.285000  -1.350600   1.975300
H    5.730000  -2.028300   1.187300
H    6.347300  -1.250600  -1.157400
H    5.323500  -0.042100  -1.969600
H    6.337800   0.435500  -0.587200
H    3.725900  -1.791500  -1.745600
H    3.872100  -2.757600  -0.238500
H    2.436000   2.690600   0.364100
H    0.441500   4.165700   0.496400
H   -1.809900   3.153900   0.248800
H   -3.363800   2.025100  -1.356000
H   -6.198200  -1.024000   0.832100
H   -4.929100  -1.867800   1.751700
H   -5.024400  -0.090900   1.791200
H   -3.715100  -2.081500  -1.766900
H   -4.162900  -3.032800  -0.330600
H   -5.422000  -2.204000  -1.277200
H   -1.165700  -1.359800   1.333700

