%chk=136.chk
%mem=12GB
%nprocshared=18
#opt=loose def2SVP pop=nbo bp86 em=gd3bj

136

0 1
Br  -3.093600  -0.579400  -0.002700
C   -1.573700   0.545600  -0.000300
C   -1.707800   1.909100  -0.000100
C   -0.576800   2.715300   0.001600
N    0.633200   2.201900   0.003200
C    0.827400   0.886700   0.003200
C   -0.276000   0.005400   0.007300
C   -0.069300  -1.392400   0.008100
C    1.173600  -1.916800   0.005000
C    2.319200  -1.089400   0.001000
C    3.610800  -1.641400  -0.001600
C    4.680200  -0.787100  -0.005100
C    4.469000   0.586400  -0.006100
N    3.257300   1.095000  -0.003700
C    2.180100   0.316300   0.005500
H   -2.691000   2.356100  -0.001700
H   -0.694300   3.788900   0.001300
H   -0.923100  -2.053800   0.011500
H    1.295500  -2.989900   0.006100
H    3.756200  -2.711500  -0.000400
H    5.686300  -1.179800  -0.006800
H    5.320200   1.251100  -0.008600

