%chk=140.chk
%mem=12GB
%nprocshared=18
#opt=loose def2SVP pop=nbo bp86 em=gd3bj

140

0 1
Cl  -4.424000  -0.624800  -0.001200
C   -2.790800  -0.036500  -0.000500
C   -2.562400   1.340800   0.000000
C   -1.307400   1.857900   0.000200
C   -0.193800   0.990200   0.000300
N    1.044200   1.471300   0.000100
C    2.101000   0.666100  -0.000200
C    3.410800   1.191300  -0.000100
C    4.473700   0.346200   0.000100
C    4.311700  -1.038900  -0.000400
C    3.079300  -1.611000  -0.000600
C    1.933500  -0.790500  -0.000300
C    0.647700  -1.337600  -0.000900
C   -0.436000  -0.456000   0.000300
C   -1.764300  -0.927700   0.005300
H   -3.407500   2.013200  -0.000100
H   -1.161500   2.928000  -0.000100
H    3.567100   2.260000  -0.000400
H    5.472100   0.758000   0.000200
H    5.186700  -1.671900  -0.001000
H    2.978600  -2.686200  -0.001300
H    0.496700  -2.407000  -0.001700
H   -1.965000  -1.988800   0.008200

