%chk=227.chk
%mem=12GB
%nprocshared=18
#opt=loose def2SVP pop=nbo bp86 em=gd3bj

227

0 1
C   12.392300  -3.750000   0.000000
C   12.392300  -2.750000   0.000000
C   13.392300  -2.750000   0.000000
C   11.392300  -2.750000   0.000000
C   12.392300  -1.750000   0.000000
C   11.526300  -1.250000   0.000000
C   11.526300  -0.250000   0.000000
C   10.660300   0.250000   0.000000
N    9.794200  -0.250000   0.000000
C    8.928200   0.250000   0.000000
C    8.062200  -0.250000   0.000000
N    7.196200   0.250000   0.000000
C    6.330100  -0.250000   0.000000
C    5.464100   0.250000   0.000000
C    5.464100   1.250000   0.000000
C    4.598100   1.750000   0.000000
C    4.598100   2.750000   0.000000
C    4.598100   3.750000   0.000000
C    5.598100   2.750000   0.000000
C    3.598100   2.750000   0.000000
C    3.732100   1.250000   0.000000
O    2.866000   1.750000   0.000000
C    3.732100   0.250000   0.000000
C    2.866000  -0.250000   0.000000
C    2.000000  -0.750000   0.000000
C    3.366000  -1.116000   0.000000
C    2.366000   0.616000   0.000000
C    4.598100  -0.250000   0.000000
C    6.330100  -1.250000   0.000000
C    7.196200  -1.750000   0.000000
C    7.196200  -2.750000   0.000000
C    6.330100  -3.250000   0.000000
C    5.464100  -2.750000   0.000000
C    5.464100  -1.750000   0.000000
O    4.598100  -1.250000   0.000000
C   12.392300   0.250000   0.000000
O   12.392300   1.250000   0.000000
C   13.258300  -0.250000   0.000000
C   14.124400   0.250000   0.000000
C   14.990400   0.750000   0.000000
C   14.624400  -0.616000   0.000000
C   13.624400   1.116000   0.000000
C   13.258300  -1.250000   0.000000
H   11.772300  -3.750000   0.000000
H   12.392300  -4.370000   0.000000
H   13.012300  -3.750000   0.000000
H   13.392300  -3.370000   0.000000
H   14.012300  -2.750000   0.000000
H   13.392300  -2.130000   0.000000
H   11.392300  -2.130000   0.000000
H   10.772300  -2.750000   0.000000
H   11.392300  -3.370000   0.000000
H   10.989300  -1.560000   0.000000
H   10.660300   0.870000   0.000000
H    9.326700   0.724900   0.000000
H    8.529700   0.724900   0.000000
H    7.663600  -0.724900   0.000000
H    8.460700  -0.724900   0.000000
H    6.001000   1.560000   0.000000
H    5.218100   3.750000   0.000000
H    4.598100   4.370000   0.000000
H    3.978100   3.750000   0.000000
H    5.598100   2.130000   0.000000
H    6.218100   2.750000   0.000000
H    5.598100   3.370000   0.000000
H    3.598100   3.370000   0.000000
H    2.978100   2.750000   0.000000
H    3.598100   2.130000   0.000000
H    2.866000   2.370000   0.000000
H    1.690000  -0.213100   0.000000
H    1.463100  -1.060000   0.000000
H    2.310000  -1.286900   0.000000
H    2.829100  -1.426000   0.000000
H    3.676000  -1.653000   0.000000
H    3.903000  -0.806000   0.000000
H    2.903000   0.926000   0.000000
H    2.056000   1.153000   0.000000
H    1.829100   0.306000   0.000000
H    4.598100  -0.870000   0.000000
H    7.733100  -1.440000   0.000000
H    7.733100  -3.060000   0.000000
H    6.330100  -3.870000   0.000000
H    4.927200  -3.060000   0.000000
H    4.061100  -1.560000   0.000000
H   11.855400   1.560000   0.000000
H   15.300400   0.213100   0.000000
H   15.527300   1.060000   0.000000
H   14.680400   1.286900   0.000000
H   14.087400  -0.926000   0.000000
H   14.934400  -1.153000   0.000000
H   15.161300  -0.306000   0.000000
H   14.161300   1.426000   0.000000
H   13.314400   1.653000   0.000000
H   13.087400   0.806000   0.000000
H   13.795300  -1.560000   0.000000

