%chk=229.chk
%mem=12GB
%nprocshared=18
#opt=loose def2SVP pop=nbo bp86 em=gd3bj

229

0 1
O   -8.363100   1.940600  -0.036000
N   -7.187200   1.942400  -0.353600
O   -6.705900   2.918000  -0.901500
C   -6.341800   0.761500  -0.068400
C   -6.891000  -0.344100   0.559900
C   -6.112300  -1.451800   0.831800
C   -4.772400  -1.463800   0.475900
O   -4.006200  -2.551800   0.742200
C   -4.212700  -0.347400  -0.160400
C   -2.789600  -0.348800  -0.543800
N   -2.052900  -1.383000  -0.293000
C   -0.638300  -1.384400  -0.674100
C    0.229100  -1.441000   0.585000
N    1.643600  -1.442400   0.203900
C    2.402700  -0.446500   0.530500
C    3.826400  -0.447900   0.147000
C    4.358200  -1.523900  -0.569400
C    5.688400  -1.521200  -0.925600
C    6.501900  -0.450600  -0.573700
O    7.812700  -0.451700  -0.927200
C    5.977400   0.621000   0.138400
N    6.848400   1.758600   0.509900
O    6.389500   2.698400   1.134200
O    8.024000   1.754900   0.191400
C    4.646500   0.629000   0.493700
C   -5.013000   0.764600  -0.434200
H   -7.934300  -0.339700   0.839100
H   -6.547600  -2.309700   1.322600
H   -3.996100  -3.208900   0.032700
H   -2.361600   0.513100  -1.034000
H   -0.430800  -2.254000  -1.297700
H   -0.411200  -0.475400  -1.231200
H    0.021600  -0.571400   1.208500
H    0.001900  -2.350000   1.142000
H    1.993400   0.385600   1.084100
H    3.726800  -2.356300  -0.842900
H    6.100200  -2.352300  -1.478800
H    7.988200  -0.047600  -1.788000
H    4.239500   1.462500   1.046900
H   -4.589100   1.628500  -0.924500

