%chk=267.chk
%mem=12GB
%nprocshared=18
#opt=loose def2SVP pop=nbo bp86 em=gd3bj

267

0 1
C   -3.478800   0.024900   0.012700
C   -2.825300  -1.125500  -0.406100
C   -1.441300  -1.133400  -0.413900
C   -0.755500   0.007900  -0.003100
C    0.727900   0.015600  -0.006100
C    1.431500   1.152100  -0.415400
C    2.814800   1.108900  -0.399500
C    3.450800  -0.046600   0.017100
N    2.759900  -1.103700   0.397400
C    1.442500  -1.107600   0.404600
N   -1.418200   1.087600   0.390200
C   -2.735300   1.121700   0.407200
H   -4.558000   0.064600   0.026100
H   -3.384100  -1.995200  -0.718600
H   -0.900500  -2.011900  -0.733500
H    0.908900   2.041100  -0.736300
H    3.391300   1.968000  -0.709300
H    4.530100  -0.083800   0.030800
H    0.911700  -1.992500   0.723200
H   -3.240800   2.018600   0.733300

