%chk=272.chk
%mem=12GB
%nprocshared=18
#opt=loose def2SVP pop=nbo bp86 em=gd3bj

272

0 1
Br  -3.564100  -0.019300  -0.010900
C   -1.673700   0.025400   0.010500
C   -1.004000   1.168700   0.426200
C    0.379700   1.160000   0.426800
C    1.049900   0.010800   0.012500
C    2.533200  -0.014100   0.007500
C    3.225800  -1.158500   0.413300
C    4.609400  -1.131200   0.390000
C    5.256400   0.016800  -0.030200
N    4.575700   1.081700  -0.407400
C    3.258400   1.100800  -0.407200
N    0.373000  -1.061400  -0.377100
C   -0.944300  -1.082500  -0.382500
H   -1.550800   2.045000   0.741600
H    0.932600   2.032000   0.743600
H    2.694800  -2.041400   0.737100
H    5.177700  -1.996800   0.696800
H    6.336000   0.041800  -0.049400
H    2.736100   1.991700  -0.723400
H   -1.461600  -1.973500  -0.706300

