%chk=273.chk
%mem=12GB
%nprocshared=18
#opt=loose def2SVP pop=nbo bp86 em=gd3bj

273

0 1
N    3.525600   1.641200   0.404900
C    2.639900   0.597000   0.154500
C    3.109300  -0.683000  -0.143400
C    2.202700  -1.694600  -0.385800
N    0.904700  -1.467900  -0.340200
C    0.413600  -0.266500  -0.060900
C   -1.056000  -0.064100  -0.022000
C   -1.898600  -1.027800   0.538400
C   -3.259700  -0.799300   0.554500
N   -3.766000   0.309600   0.050600
C   -3.005900   1.243800  -0.487300
C   -1.634400   1.098000  -0.539600
C    1.263100   0.802400   0.200600
H    4.482200   1.483800   0.373600
H    3.186200   2.527200   0.606800
H    4.170500  -0.879600  -0.184100
H    2.561700  -2.686700  -0.616700
H   -1.490900  -1.938100   0.952500
H   -3.919000  -1.538300   0.985200
H   -3.462400   2.136400  -0.888700
H   -1.018000   1.867000  -0.981100
H    0.861600   1.779000   0.427600

