%chk=298.chk
%mem=12GB
%nprocshared=18
#opt=loose def2SVP pop=nbo bp86 em=gd3bj

298

0 1
C    2.820700   0.830300  -0.007400
C    1.605000  -0.035300  -0.344900
N    1.755300  -1.355800   0.280800
C    0.336900   0.638200   0.183500
C   -0.888800  -0.162200  -0.261200
C   -2.156900   0.511300   0.267300
N   -3.333800  -0.257200  -0.159700
H    2.894800   0.946900   1.073800
H    3.724100   0.350500  -0.383900
H    2.709200   1.810100  -0.471700
H    1.530900  -0.151800  -1.426100
H    0.936000  -1.924300   0.126600
H    2.586300  -1.821300  -0.052100
H    0.371700   0.674600   1.272400
H    0.272100   1.651800  -0.212000
H   -0.923500  -0.198600  -1.350000
H   -0.823900  -1.175800   0.134400
H   -2.122200   0.547700   1.356100
H   -2.221800   1.524900  -0.128300
H   -3.266300  -1.218300   0.140000
H   -4.184800   0.167600   0.177100

