%chk=316.chk
%mem=12GB
%nprocshared=18
#opt=loose def2SVP pop=nbo bp86 em=gd3bj

316

0 1
C   -0.000000   2.199000  -0.002300
C   -0.000000   0.692000  -0.001600
C    1.200900  -0.003400  -0.000100
N    2.411800   0.692600   0.001300
C    1.197400  -1.393100   0.000500
C    0.000000  -2.082400  -0.000500
C   -1.197300  -1.393200  -0.002500
C   -1.200900  -0.003400   0.003200
N   -2.411800   0.692600   0.001700
H    0.001000   2.561900  -1.030100
H   -0.890500   2.562500   0.510500
H    0.889400   2.562600   0.512300
H    2.413700   1.662600   0.001300
H    3.250900   0.206000   0.002400
H    2.131600  -1.934900   0.001300
H    0.000100  -3.162400  -0.000100
H   -2.131600  -1.935000  -0.003600
H   -3.250900   0.206000  -0.003300
H   -2.413700   1.662600   0.005700

