%chk=334.chk
%mem=12GB
%nprocshared=18
#opt=loose def2SVP pop=nbo bp86 em=gd3bj

334

0 1
N   -2.699800  -0.020100   0.689200
C   -1.958000  -0.030900  -0.578700
C   -0.478000  -0.015100  -0.295000
C    0.228700  -1.198600  -0.145600
C    1.585100  -1.144800   0.113500
N    2.206300   0.013600   0.219000
C    1.566400   1.158500   0.082900
C    0.210400   1.183200  -0.182900
H   -2.434600   0.771000   1.256500
H   -3.695400  -0.030400   0.525700
H   -2.210800  -0.930500  -1.139900
H   -2.225300   0.849300  -1.163500
H   -0.274600  -2.150400  -0.230300
H    2.142800  -2.062200   0.231200
H    2.109000   2.087600   0.176400
H   -0.308100   2.124100  -0.293700

