%chk=352.chk
%mem=12GB
%nprocshared=18
#opt=loose def2SVP pop=nbo bp86 em=gd3bj

352

0 1
C    4.004400  -1.029800   0.001100
C    2.715200  -0.249400   0.000900
C    2.606300   1.096000  -0.000300
N    1.271200   1.389700  -0.000500
H    0.875400   2.275200  -0.001500
C    0.601000   0.201200   0.000500
C   -0.868700   0.035900  -0.000000
C   -1.421200  -1.245100   0.001200
C   -2.798000  -1.383200   0.000700
C   -3.579200  -0.235800  -0.001000
C   -2.965200   1.003400  -0.002200
N   -1.652300   1.108100   0.003800
N    1.484800  -0.771800  -0.004000
H    4.315700  -1.217000   1.028800
H    3.854200  -1.979700  -0.511900
H    4.775900  -0.457000  -0.513600
H    3.420100   1.806100  -0.000600
H   -0.783300  -2.116600   0.002200
H   -3.254600  -2.361900   0.001200
H   -4.656600  -0.310200  -0.001900
H   -3.570800   1.897700  -0.003500

