%chk=364.chk
%mem=12GB
%nprocshared=18
#opt=loose def2SVP pop=nbo bp86 em=gd3bj

364

0 1
N    1.245600   2.798400   0.397500
N    0.007800   2.175800   0.190200
C   -0.057900   0.876400   0.069200
C   -1.375600   0.206100  -0.012600
C   -2.547400   0.963100  -0.016600
C   -3.772200   0.332600  -0.093500
C   -3.839800  -1.047400  -0.166100
C   -2.681300  -1.803600  -0.162100
C   -1.450200  -1.184600  -0.091800
C    1.184400   0.074900   0.014000
C    2.153700   0.365400  -0.947000
C    3.309900  -0.392700  -0.985400
C    3.461600  -1.418200  -0.061600
C    2.461400  -1.651600   0.863600
N    1.371100  -0.911900   0.883000
H    1.315700   3.764900   0.354100
H    2.031800   2.263200   0.588300
H   -2.495900   2.040300   0.040800
H   -4.680100   0.917500  -0.096700
H   -4.800900  -1.536300  -0.225800
H   -2.740600  -2.880600  -0.218300
H   -0.546500  -1.776000  -0.089100
H    2.002900   1.170400  -1.651000
H    4.077500  -0.191800  -1.718000
H    4.352800  -2.028200  -0.066100
H    2.577100  -2.448600   1.583200

