%chk=375.chk
%mem=12GB
%nprocshared=18
#opt=loose def2SVP pop=nbo bp86 em=gd3bj

375

0 1
C    2.839200  -1.085000   0.392600
C    1.459800  -1.127800   0.407800
C    0.742000  -0.000200  -0.000000
C   -0.742000  -0.000200   0.000300
C   -1.459600   1.127800   0.407100
C   -2.839000   1.085100   0.392000
N   -3.478600  -0.000300   0.001300
C   -2.839200  -1.085600  -0.390200
C   -1.459900  -1.126200  -0.411800
C    1.459700   1.127400  -0.407700
C    2.839100   1.084800  -0.392100
N    3.478600  -0.000000   0.000300
H    3.402600  -1.949900   0.710300
H    0.942800  -2.019600   0.729900
H   -0.942500   2.019600   0.728900
H   -3.402300   1.951900   0.704700
H   -3.402700  -1.952500  -0.702200
H   -0.942900  -2.018000  -0.733800
H    0.942600   2.018900  -0.730600
H    3.402400   1.951400  -0.705400

