%chk=380.chk
%mem=12GB
%nprocshared=18
#opt=loose def2SVP pop=nbo bp86 em=gd3bj

380

0 1
C   -4.840000   1.393600  -0.108600
C   -4.758700   0.256000   0.682200
C   -3.564200  -0.442400   0.714100
C   -2.490300   0.018100  -0.044700
C   -1.203300  -0.719500  -0.021800
C   -1.197300  -2.113800  -0.021500
C   -0.000000  -2.801700   0.000400
C    1.197300  -2.114000   0.022100
C    1.203500  -0.719700   0.022000
C    2.490600   0.017800   0.045800
C    3.565100  -0.443100  -0.712000
C    4.759500   0.255400  -0.679600
C    4.840100   1.393500   0.110600
C    3.734300   1.794000   0.837200
N    2.607200   1.113600   0.784200
C    0.000300  -0.021200  -0.006200
N   -2.609200   1.110400  -0.787900
C   -3.734700   1.793800  -0.836200
H   -5.759300   1.958200  -0.158500
H   -5.608300  -0.076600   1.260100
H   -3.465900  -1.331700   1.319000
H   -2.130700  -2.656800  -0.038000
H   -0.000100  -3.881700   0.000900
H    2.130600  -2.657100   0.039500
H    3.467500  -1.333100  -1.315900
H    5.609800  -0.077800  -1.256100
H    5.758100   1.960500   0.157700
H    3.793800   2.679000   1.453400
H    0.000300   1.058800  -0.006700
H   -3.794600   2.678600  -1.452600

