%chk=42.chk
%mem=12GB
%nprocshared=18
#opt=loose def2SVP pop=nbo bp86 em=gd3bj

42

0 1
C    3.066200  -0.204800   0.002800
N    1.792600   0.523000  -0.074300
C    0.652900  -0.396500   0.042300
C   -0.652900   0.396500  -0.042300
N   -1.792600  -0.523000   0.074300
C   -3.066200   0.204800  -0.002800
H    3.893200   0.499600  -0.086100
H    3.131400  -0.722700   0.959800
H    3.119100  -0.931500  -0.807900
H    1.746600   1.246700   0.627400
H    0.689000  -1.124500  -0.768200
H    0.701300  -0.915700   0.999500
H   -0.689000   1.124500   0.768200
H   -0.701300   0.915700  -0.999500
H   -1.746600  -1.246700  -0.627400
H   -3.893200  -0.499600   0.086100
H   -3.119100   0.931500   0.807900
H   -3.131400   0.722700  -0.959800

