%chk=455.chk
%mem=12GB
%nprocshared=18
#opt=loose def2SVP pop=nbo bp86 em=gd3bj

455

0 1
N    2.750800  -0.683600   0.000600
N    1.528500  -1.095600   0.001000
C    0.742600  -0.010000   0.000100
C   -0.742600   0.010000   0.000900
N   -1.528500   1.095600   0.000000
N   -2.750800   0.683600   0.000400
N   -2.757700  -0.603700   0.001400
H   -3.551900  -1.160600   0.001900
N   -1.543700  -1.036400  -0.003200
N    1.543700   1.036400  -0.000700
N    2.757700   0.603700  -0.000400
H    3.551900   1.160600  -0.000600

