%chk=489.chk
%mem=12GB
%nprocshared=18
#opt=loose def2SVP pop=nbo bp86 em=gd3bj

489

0 1
S    2.565800   1.583800  -0.023100
C    1.036900   0.708100  -0.009600
N   -0.099700   1.374600  -0.021000
C   -1.263600   0.707700  -0.010700
C   -2.487400   1.395400  -0.023100
C   -3.656500   0.695900  -0.012600
C   -3.656500  -0.696000   0.010700
C   -2.487300  -1.395500   0.023200
C   -1.263600  -0.707600   0.012500
N   -0.099700  -1.374400   0.023900
C    1.036900  -0.708000   0.007700
S    2.565900  -1.583700   0.022700
H    2.777600   1.728200   1.363400
H   -2.502100   2.475200  -0.040500
H   -4.596000   1.228500  -0.022200
H   -4.595900  -1.228700   0.019400
H   -2.501900  -2.475200   0.041700
H    2.775500  -1.734200  -1.363500

