%chk=500.chk
%mem=12GB
%nprocshared=18
#opt=loose def2SVP pop=nbo bp86 em=gd3bj

500

0 1
C    5.669000   0.133800  -0.285700
C    4.544200   0.678700   0.596800
C    4.614200   2.206800   0.626700
C    3.213000   0.247600   0.037200
C    2.728400   0.537000  -1.181800
N    1.515500  -0.034400  -1.285100
C    1.251400  -0.657900  -0.172300
C   -0.008800  -1.429500   0.123700
C   -0.160100  -2.566700  -0.888500
C    0.069500  -2.011300   1.536600
C   -1.197000  -0.507800   0.025100
C   -1.169000   0.800600  -0.277700
N   -2.436100   1.250700  -0.260700
C   -3.226900   0.260800   0.041500
C   -4.726700   0.341700   0.164900
C   -5.095000   1.349100   1.255900
C   -5.324500   0.793300  -1.169100
O   -2.487900  -0.842500   0.218400
O    2.287400  -0.505400   0.663300
H    6.631800   0.445500   0.119100
H    5.619100  -0.954900  -0.307000
H    5.557300   0.522500  -1.297900
H    4.655800   0.290000   1.609000
H    3.812800   2.595000   1.255400
H    5.577000   2.518500   1.031500
H    4.502500   2.595500  -0.385500
H    3.223600   1.123000  -1.941900
H    0.699300  -3.233400  -0.817200
H   -1.071600  -3.124800  -0.674400
H   -0.215800  -2.152200  -1.895100
H    0.177300  -1.201100   2.257700
H   -0.842000  -2.569400   1.750700
H    0.928900  -2.677900   1.607900
H   -0.287700   1.385700  -0.495600
H   -5.123100  -0.639200   0.427200
H   -4.698600   2.330000   0.993600
H   -6.179800   1.407600   1.345100
H   -4.669100   1.027400   2.206300
H   -4.928100   1.774200  -1.431500
H   -5.062100   0.075600  -1.946400
H   -6.409200   0.851800  -1.079900

