%chk=520.chk
%mem=12GB
%nprocshared=18
#opt=loose def2SVP pop=nbo bp86 em=gd3bj

520

0 1
C    1.198900   0.376400  -1.072900
C    2.340200   1.019500  -0.749900
N    3.094700   0.568100   0.256900
C    2.709900  -0.517900   0.934600
C    1.565500  -1.147900   0.597400
N    0.826800  -0.695100  -0.398200
N   -0.499100  -0.428900   0.135800
C   -1.531700  -1.118100  -0.650600
C   -2.901300  -0.878000  -0.011000
N   -3.165000   0.566600   0.047900
C   -2.132400   1.255800   0.834200
C   -0.762800   1.015700   0.194700
H    0.585700   0.742300  -1.883200
H    2.643300   1.895900  -1.303400
H    3.313300  -0.890000   1.749300
H    1.253000  -2.025500   1.143900
H   -1.532800  -0.729900  -1.669100
H   -1.321400  -2.187500  -0.668900
H   -3.672100  -1.364200  -0.608900
H   -2.908900  -1.290500   0.997900
H   -3.236000   0.959300  -0.878800
H   -2.342700   2.325200   0.852600
H   -2.131300   0.867600   1.852700
H    0.008000   1.501900   0.792600
H   -0.755200   1.428200  -0.814200
H    0.727800  -1.447600  -1.063100

