%chk=566.chk
%mem=12GB
%nprocshared=18
#opt=loose def2SVP pop=nbo bp86 em=gd3bj

566

0 1
C    6.656300  -2.723800   0.828600
C    5.309100  -2.014100   0.977600
C    4.751300  -1.682800  -0.408100
C    3.424300  -0.983800  -0.261400
C    2.279800  -1.713100  -0.326600
C    1.035600  -1.065300  -0.190200
C   -0.165100  -1.777600  -0.250600
C   -1.355700  -1.061700  -0.105700
C   -2.608900  -1.705800  -0.154000
C   -2.689200  -3.195700  -0.365100
C   -3.743300  -0.973100  -0.008300
C   -5.079500  -1.668100  -0.060400
C   -5.585600  -1.692600  -1.504000
C   -3.701100   0.407100   0.188900
C   -4.994500   1.164800   0.344300
C   -5.324600   1.310700   1.831200
C   -2.527300   1.086800   0.245100
C   -2.525300   2.578400   0.460200
C   -1.308600   0.389100   0.101400
N   -0.146500   1.030400   0.152500
C    1.007600   0.385600   0.019600
C    2.235000   1.079500   0.076400
C    2.252600   2.571200   0.289900
C    2.210200   3.280800  -1.064800
C    2.228000   4.795300  -0.848000
C    3.400500   0.395200  -0.056300
C    4.703900   1.149100   0.006400
H    7.053800  -2.959800   1.815800
H    6.521000  -3.644900   0.261700
H    7.354000  -2.072400   0.302300
H    4.611500  -2.665500   1.503900
H    5.444400  -1.093000   1.544500
H    5.448900  -1.031400  -0.934400
H    4.616000  -2.603900  -0.975000
H    2.323100  -2.780900  -0.482200
H   -0.172200  -2.846600  -0.404500
H   -2.604900  -3.703900   0.595600
H   -3.644500  -3.446400  -0.826200
H   -1.876100  -3.514600  -1.017300
H   -4.972100  -2.689600   0.304400
H   -5.792600  -1.131800   0.565600
H   -5.613800  -0.676100  -1.896500
H   -4.915700  -2.299100  -2.113700
H   -6.587900  -2.120200  -1.530400
H   -4.892700   2.153200  -0.103900
H   -5.796600   0.620600  -0.154200
H   -4.569700   1.933200   2.311600
H   -6.303800   1.776500   1.942000
H   -5.335400   0.326400   2.299200
H   -2.588600   2.791600   1.527200
H   -1.604600   3.002100   0.059000
H   -3.381100   3.020200  -0.050100
H    1.384600   2.863900   0.880800
H    3.163500   2.851800   0.818700
H    3.078200   2.988100  -1.655700
H    1.299300   3.000200  -1.593700
H    3.138900   5.075900  -0.319200
H    2.197800   5.300900  -1.813200
H    1.360100   5.088000  -0.257200
H    5.101000   1.104700   1.020500
H    5.417700   0.698700  -0.683400
H    4.535700   2.189300  -0.272700

