%chk=569.chk
%mem=12GB
%nprocshared=18
#opt=loose def2SVP pop=nbo bp86 em=gd3bj

569

0 1
C    7.078100  -4.176800   0.000000
C    6.390500  -3.450700   0.000000
C    6.675600  -2.492100   0.000000
C    7.687700  -2.246200   0.000000
C    8.380900  -2.967000   0.000000
C    7.973100  -1.244400   0.000000
C    7.242500  -0.502000   0.000000
C    6.236400  -0.771300   0.000000
C    5.962400  -1.733000   0.000000
N    4.992400  -1.976600   0.000000
C    4.296500  -1.258500   0.000000
C    3.326600  -1.502100   0.000000
C    4.570500  -0.296700   0.000000
C    3.874600   0.421400   0.000000
C    2.904700   0.177800   0.000000
C    2.630700  -0.783900   0.000000
C    5.540400  -0.053200   0.000000
C    5.814300   0.908600   0.000000
C    6.808400   0.909400   0.000000
C    7.396200   0.100400   0.000000
C    8.390700   0.204900   0.000000
C    7.116400   1.854600   0.000000
C    8.068000   2.162000   0.000000
C    8.277600   3.139800   0.000000
C    9.229200   3.447100   0.000000
C    6.313700   2.441000   0.000000
C    6.004700   3.392000   0.000000
C    5.004700   3.392000   0.000000
C    4.319700   4.176800   0.000000
C    3.299200   3.968100   0.000000
C    2.977300   2.977400   0.000000
C    2.000000   2.765700   0.000000
C    3.680300   2.208700   0.000000
C    3.073800   1.413600   0.000000
C    2.082000   1.541400   0.000000
C    4.695700   2.441000   0.000000
N    5.504700   1.853200   0.000000
H    6.901400  -4.771100   0.000000
H    7.681100  -4.032700   0.000000
H    5.787500  -3.594700   0.000000
H    7.934000  -3.396800   0.000000
H    8.810600  -3.413900   0.000000
H    8.827800  -2.537300   0.000000
H    8.573800  -1.091100   0.000000
H    7.405400   0.096200   0.000000
H    4.822600  -2.572900   0.000000
H    3.175600  -0.900700   0.000000
H    2.725300  -1.653100   0.000000
H    3.477600  -2.103400   0.000000
H    4.388000   0.769000   0.000000
H    3.621400   0.987300   0.000000
H    2.860400   0.796200   0.000000
H    2.288000   0.241500   0.000000
H    2.034400  -0.614000   0.000000
H    2.460800  -1.380200   0.000000
H    3.227000  -0.953800   0.000000
H    7.144000  -0.466000   0.000000
H    8.755200  -0.296600   0.000000
H    8.642900   0.771300   0.000000
H    8.153200   1.547800   0.000000
H    8.687600   2.139300   0.000000
H    8.192400   3.753900   0.000000
H    7.658000   3.162500   0.000000
H    9.419800   2.857100   0.000000
H    9.819200   3.637700   0.000000
H    9.038600   4.037100   0.000000
H    6.369100   3.893600   0.000000
H    4.518100   4.764200   0.000000
H    2.886100   4.430400   0.000000
H    1.868800   3.371700   0.000000
H    1.394000   2.634500   0.000000
H    2.131200   2.159800   0.000000
H    3.312700   0.841500   0.000000
H    1.843100   2.113500   0.000000
H    1.705900   1.048400   0.000000

