%chk=587.chk
%mem=12GB
%nprocshared=18
#opt=loose def2SVP pop=nbo bp86 em=gd3bj

587

0 1
N    2.611000   1.589700  -0.000400
C    2.350000   0.267500   0.000200
S    3.638800  -0.859400   0.000500
N    1.074400  -0.167600   0.000400
N    0.019700   0.754600   0.000200
C   -1.295900   0.305900   0.000500
C   -2.338600   1.227100   0.000200
C   -3.642700   0.766700   0.000500
C   -3.861500  -0.604800   0.001000
C   -2.779700  -1.461900   0.001300
N   -1.545600  -0.994300  -0.004400
H    3.529000   1.902900  -0.000600
H    1.880800   2.228200  -0.004600
H    0.886500  -1.119200   0.000800
H    0.207500   1.706200  -0.000200
H   -2.132400   2.287200   0.000100
H   -4.472300   1.458200   0.000600
H   -4.867900  -0.996600   0.001600
H   -2.945300  -2.529200   0.002100

