%chk=588.chk
%mem=12GB
%nprocshared=18
#opt=loose def2SVP pop=nbo bp86 em=gd3bj

588

0 1
N    3.954700   1.233000   0.010600
C    3.892100  -0.113300   0.004100
S    5.333400  -1.037200   0.000000
N    2.694900  -0.732300   0.000900
N    1.515400   0.023800   0.004300
C    0.360900  -0.573100   0.001100
C   -0.876500   0.220200   0.004700
C   -0.829400   1.614300   0.011300
O    0.371200   2.248500   0.015100
C   -2.006500   2.360300   0.013700
C   -3.230100   1.767500   0.010100
C   -3.350800   0.367200   0.004300
C   -4.610500  -0.256300   0.001600
C   -4.689200  -1.615500  -0.003700
C   -3.538900  -2.400900  -0.006500
C   -2.301300  -1.829700  -0.003900
C   -2.183000  -0.434500  -0.004900
H    4.816400   1.678500   0.012900
H    3.138100   1.756500   0.008900
H    2.649900  -1.701200  -0.003700
H    0.310800  -1.651900  -0.004000
H    0.719600   2.436400  -0.867200
H   -1.945100   3.438600   0.018800
H   -4.119700   2.379900   0.012100
H   -5.511100   0.339700   0.004000
H   -5.658400  -2.092000  -0.005500
H   -3.628800  -3.477200  -0.010300
H   -1.416900  -2.449700  -0.006000

