%chk=611.chk
%mem=12GB
%nprocshared=18
#opt=loose def2SVP pop=nbo bp86 em=gd3bj

611

0 1
O    3.950100  -2.254800   0.000800
C    3.522700  -1.117000   0.001100
N    4.270200  -0.000400   0.001300
C    3.523200   1.116500   0.000800
O    3.951200   2.254000   0.000500
C    2.098400   0.735000   0.000300
C    0.918000   1.433900  -0.000300
C   -0.309800   0.734100  -0.000700
C   -1.515500   1.433900  -0.000600
C   -2.722100   0.733300  -0.000500
C   -3.959000   1.410800   0.000100
C   -5.114700   0.696600   0.000700
C   -5.114400  -0.697700   0.001000
C   -3.958300  -1.411200   0.000900
C   -2.721900  -0.732800  -0.000600
C   -1.515200  -1.433100  -0.000200
C   -0.309800  -0.732900  -0.000600
C    0.917700  -1.433200  -0.000100
C    2.098200  -0.734700  -0.005200
H    5.240200  -0.000700   0.002000
H    0.927000   2.513800  -0.000200
H   -1.515600   2.513900  -0.000300
H   -3.987300   2.490500   0.000600
H   -6.058000   1.222500   0.001200
H   -6.057500  -1.224000   0.001800
H   -3.985900  -2.490800   0.001900
H   -1.514900  -2.513100   0.001100
H    0.926200  -2.513100  -0.000400

