%chk=66.chk
%mem=12GB
%nprocshared=18
#opt=loose def2SVP pop=nbo bp86 em=gd3bj

66

0 1
C   -3.419300   0.000000  -0.000200
C   -2.710400  -1.192400  -0.000700
N   -1.389100  -1.156700  -0.000600
C   -0.742600  -0.000000  -0.000000
C    0.742600  -0.000000  -0.000400
N    1.389100   1.156700   0.000200
C    2.710400   1.192400  -0.000200
C    3.419300  -0.000000  -0.001100
C    2.710400  -1.192400  -0.001700
N    1.389100  -1.156700   0.004100
N   -1.389100   1.156700   0.000500
C   -2.710400   1.192400   0.000400
H   -4.499200   0.000000  -0.004700
H   -3.231600  -2.138300  -0.000800
H    3.231600   2.138300  -0.000000
H    4.499300  -0.000000  -0.001800
H    3.231600  -2.138300  -0.002800
H   -3.231600   2.138300   0.000400

