%chk=679.chk
%mem=12GB
%nprocshared=18
#opt=loose def2SVP pop=nbo bp86 em=gd3bj

679

0 1
Br  -3.063500   0.578600   0.247200
C   -1.986200  -0.242300  -1.177700
C   -0.707300  -0.783400  -0.592200
C   -0.666200  -2.083700  -0.126100
C    0.515200  -2.572700   0.410500
C    1.616100  -1.731600   0.458400
C    1.500300  -0.441800  -0.027200
Br   2.993600   0.716900   0.031600
N    0.360900  -0.012200  -0.535600
H   -2.548800  -1.055800  -1.635800
H   -1.751200   0.507400  -1.933300
H   -1.543600  -2.711300  -0.178700
H    0.576100  -3.584700   0.782700
H    2.552200  -2.079100   0.870100

