%chk=681.chk
%mem=12GB
%nprocshared=18
#opt=loose def2SVP pop=nbo bp86 em=gd3bj

681

0 1
C    6.381700  -2.310300   0.962300
C    5.544300  -2.807200  -0.025000
C    4.774700  -1.910700  -0.750200
C    4.866900  -0.560900  -0.467100
C    4.034600   0.422600  -1.248700
N    2.795400   0.708400  -0.513500
C    1.956900   1.665900  -1.247200
C    0.697600   1.933900  -0.464000
C    0.638200   3.026700   0.377700
C   -0.524500   3.268800   1.096800
C   -1.589400   2.399400   0.942400
C   -1.460000   1.318200   0.076900
N   -2.522200   0.436900  -0.088100
C   -3.771100   0.649000   0.647900
C   -4.753700  -0.437200   0.293400
C   -4.853300  -1.557300   1.097100
C   -5.760700  -2.550400   0.762400
C   -6.537600  -2.379000  -0.373400
C   -6.382600  -1.232100  -1.128400
N   -5.512500  -0.305500  -0.776900
N   -0.335800   1.124200  -0.595700
N    5.674400  -0.124000   0.479300
C    6.421000  -0.947700   1.188900
H    6.992100  -2.980100   1.549700
H    5.493100  -3.867400  -0.224500
H    4.111700  -2.262500  -1.526800
H    4.597000   1.346200  -1.385800
H    3.789800  -0.001700  -2.222400
H    2.287300  -0.140900  -0.317300
H    2.504800   2.598100  -1.384300
H    1.697700   1.250200  -2.220900
H    1.487700   3.686300   0.476000
H   -0.595900   4.116700   1.762000
H   -2.508700   2.557700   1.486700
H   -2.436600  -0.318500  -0.690600
H   -3.570600   0.622200   1.718900
H   -4.189900   1.619200   0.380800
H   -4.231700  -1.657700   1.974600
H   -5.859900  -3.436700   1.371500
H   -7.254500  -3.132500  -0.664300
H   -6.983900  -1.091100  -2.014400
H    7.070300  -0.552800   1.956300

