%chk=683.chk
%mem=12GB
%nprocshared=18
#opt=loose def2SVP pop=nbo bp86 em=gd3bj

683

0 1
N   -7.040100   2.087100   0.827300
C   -6.309300   1.244700  -0.128900
C   -4.910700   0.949500   0.416600
C   -4.149600   0.072000  -0.579200
N   -2.806700  -0.211400  -0.055500
C   -2.045100  -1.053700  -0.987400
C   -0.676200  -1.322600  -0.417500
C   -0.452100  -2.481200   0.299200
C    0.811000  -2.723800   0.822000
C    1.806700  -1.788400   0.604000
C    1.510300  -0.643000  -0.127500
N    2.501300   0.304900  -0.354500
C    3.850800   0.095200   0.175700
C    4.740900   1.277300  -0.213200
C    6.150300   1.058400   0.340600
N    7.004900   2.193300  -0.032800
N    0.294000  -0.450400  -0.614400
H   -6.528800   2.933600   1.027700
H   -7.967600   2.296300   0.489600
H   -6.848000   0.308200  -0.273600
H   -6.224900   1.766300  -1.082200
H   -4.372000   1.886000   0.561400
H   -4.995100   0.427800   1.370000
H   -4.688200  -0.864500  -0.723900
H   -4.065100   0.593700  -1.532500
H   -2.310200   0.643100   0.148000
H   -2.569200  -1.998000  -1.135000
H   -1.946100  -0.539800  -1.943600
H   -1.251300  -3.191400   0.451900
H    1.011700  -3.622400   1.386500
H    2.800500  -1.945200   0.996600
H    2.299400   1.105200  -0.864100
H    3.806100   0.016000   1.261900
H    4.265400  -0.823600  -0.238900
H    4.785600   1.356600  -1.299400
H    4.326400   2.196200   0.201400
H    6.105600   0.979100   1.426800
H    6.564900   0.139500  -0.074000
H    6.607900   3.064800   0.284900
H    7.941900   2.072400   0.321600

