%chk=707.chk
%mem=12GB
%nprocshared=18
#opt=loose def2SVP pop=nbo bp86 em=gd3bj

707

0 1
C    2.948700   0.038700   0.003700
C    1.441900   0.014200   0.003300
C    0.593100   1.135000  -0.000100
C    1.022600   2.579500  -0.003300
C   -0.687800   0.675300  -0.000100
N   -2.020300   1.050600  -0.002100
H   -2.359700   1.959300  -0.004600
C   -2.780200  -0.106000   0.000100
C   -1.961400  -1.150800   0.003300
N   -0.649700  -0.690800   0.003300
C    0.662000  -1.088500   0.000300
C    1.150900  -2.514000  -0.006700
H    3.311600   0.047500   1.031500
H    3.326600  -0.846700  -0.507500
H    3.297600   0.933000  -0.512500
H    1.127000   2.925300  -1.031700
H    0.272700   3.182700   0.508500
H    1.978800   2.675400   0.511100
H   -3.859300  -0.151100  -0.000400
H   -2.264400  -2.187500   0.006300
H    1.267400  -2.853100  -1.036000
H    2.111300  -2.571200   0.505600
H    0.427600  -3.148700   0.505300

