%chk=750.chk
%mem=12GB
%nprocshared=18
#opt=loose def2SVP pop=nbo bp86 em=gd3bj

750

0 1
N    2.733600   0.000100   0.001000
C    1.340100  -0.014000   0.000900
C    0.632800   1.183100  -0.000700
N   -0.688200   1.169800  -0.000600
C   -1.340100   0.014000   0.000500
N   -2.733600  -0.000100   0.000500
C   -0.632800  -1.183100   0.001200
N    0.688200  -1.169800  -0.003000
H    3.210100   0.845000  -0.000100
H    3.227000  -0.835000   0.006100
H    1.163300   2.123800  -0.001600
H   -3.227000   0.835000  -0.000300
H   -3.210100  -0.845000   0.001300
H   -1.163300  -2.123800   0.001700

