%chk=768.chk
%mem=12GB
%nprocshared=18
#opt=loose def2SVP pop=nbo bp86 em=gd3bj

768

0 1
C   -3.485000   2.157700   0.001300
C   -2.614300   0.927700  -0.000000
C   -1.269100   0.918600  -0.000900
C   -0.865900  -0.439400  -0.002000
N    0.460000  -0.924900  -0.002500
C    1.527400  -0.032700  -0.002300
O    1.433200   1.308000  -0.001200
C    2.668200   1.844300  -0.000600
C    3.568700   0.845800  -0.001200
C    2.840100  -0.365900   0.002800
C    3.413700  -1.759500   0.004500
C   -2.000400  -1.183000  -0.001800
N   -2.065000  -2.579400  -0.002600
O   -3.053000  -0.344700   0.005300
H   -3.695600   2.454900  -1.026000
H   -4.421000   1.939800   0.515600
H   -2.968200   2.968200   0.515300
H   -0.620300   1.781900  -0.001100
H    0.626600  -1.880500  -0.002900
H    2.897200   2.899800  -0.000100
H    4.643700   0.949600  -0.000900
H    3.554600  -2.093200   1.032500
H    2.727700  -2.435400  -0.506200
H    4.373700  -1.757900  -0.511800
H   -1.248200  -3.102700  -0.003400
H   -2.926500  -3.025100  -0.002300

