%chk=79.chk
%mem=12GB
%nprocshared=18
#opt=loose def2SVP pop=nbo bp86 em=gd3bj

79

0 1
F   -5.368800   0.517000   0.298700
C   -4.285300  -0.362700   0.395900
F   -4.146500  -0.786900   1.721800
F   -4.509500  -1.471400  -0.427400
C   -3.026300   0.340900  -0.040800
C   -3.060900   1.664300  -0.456500
C   -1.888200   2.281900  -0.851200
N   -0.743200   1.630800  -0.837800
C   -0.667200   0.365400  -0.447600
C    0.644900  -0.327500  -0.449100
C    0.754600  -1.656300  -0.868700
C    1.994000  -2.262800  -0.854200
N    3.064600  -1.605700  -0.451400
C    3.004500  -0.351600  -0.047800
C    4.262600   0.346300   0.400500
F    5.361700  -0.493500   0.191000
F    4.429400   1.524900  -0.334600
F    4.164800   0.655500   1.761400
C    1.805400   0.332300  -0.036500
C   -1.808200  -0.316800  -0.031000
H   -3.994700   2.206700  -0.471800
H   -1.911500   3.311900  -1.175300
H   -0.117900  -2.200400  -1.199100
H    2.088700  -3.289100  -1.176600
H    1.763400   1.359200   0.295300
H   -1.744700  -1.347100   0.286800

