%chk=809.chk
%mem=12GB
%nprocshared=18
#opt=loose def2SVP pop=nbo bp86 em=gd3bj

809

0 1
Br  -5.650800  -0.956500  -0.118100
C   -4.960000   0.802800   0.422800
C   -3.461500   0.824600   0.264000
C   -2.889800   1.229400  -0.934100
C   -1.509800   1.235400  -1.038800
C   -0.746000   0.837000   0.056400
C    0.734300   0.838400  -0.039500
C    1.515700   1.260000   1.040200
C    2.892600   1.242000   0.900600
C    3.446200   0.811400  -0.291600
C    4.944900   0.789900  -0.448500
Br   5.639400  -0.955800   0.130400
N    2.683000   0.418900  -1.293100
C    1.368500   0.414000  -1.205100
N   -1.331800   0.457000   1.184300
C   -2.643100   0.446900   1.312300
H   -5.403100   1.575800  -0.205000
H   -5.217600   0.989500   1.465300
H   -3.507900   1.532500  -1.766200
H   -1.031600   1.544200  -1.956600
H    1.056700   1.591700   1.959800
H    3.527900   1.561000   1.713600
H    5.203100   0.955000  -1.494500
H    5.385500   1.577200   0.163200
H    0.777100   0.085100  -2.046800
H   -3.084800   0.131600   2.246000

