%chk=814.chk
%mem=12GB
%nprocshared=18
#opt=loose def2SVP pop=nbo bp86 em=gd3bj

814

0 1
O    3.572900  -2.785100   0.002000
C    3.537500  -1.571700   0.001900
O    4.683500  -0.864600  -0.003200
C    2.231500  -0.867600   0.001300
N    2.243600   0.461700   0.001300
C    1.128900   1.173600   0.000800
C    1.161700   2.656200   0.000300
O    0.124100   3.286300  -0.000200
O    2.342600   3.303600   0.000300
C   -0.139800   0.440200   0.000300
C   -1.364700   1.088300   0.000200
C   -2.539600   0.333100   0.000200
C   -3.804400   0.956800  -0.000300
C   -4.928000   0.193700  -0.000800
C   -4.867900  -1.199900  -0.000700
C   -3.683300  -1.863500   0.000200
C   -2.475700  -1.132600   0.000300
C   -1.242700  -1.783500   0.001700
C   -0.069900  -1.029500   0.000400
N    1.139600  -1.600400  -0.004400
H    5.509500  -1.367400  -0.006800
H    2.313400   4.270200  -0.000100
H   -1.410500   2.167300   0.000500
H   -3.879100   2.034200  -0.000000
H   -5.893100   0.678500  -0.000800
H   -5.787700  -1.766000  -0.001100
H   -3.665100  -2.943400   0.000900
H   -1.196400  -2.862500   0.002300

