%chk=828.chk
%mem=12GB
%nprocshared=18
#opt=loose def2SVP pop=nbo bp86 em=gd3bj

828

0 1
C    3.250200  -0.957300  -1.031200
N    3.093100  -0.207300   0.222100
C    4.248700   0.667900   0.460300
C    1.841500   0.561700   0.222100
C    0.651800  -0.400400   0.222100
C   -0.651800   0.400400   0.222100
C   -1.841500  -0.561700   0.222100
N   -3.093100   0.207300   0.222100
C   -3.250200   0.957300  -1.031200
C   -4.248700  -0.667900   0.460300
H    4.148800  -1.571900  -0.976700
H    2.381000  -1.597200  -1.183100
H    3.337400  -0.259300  -1.863800
H    4.301500   1.421700  -0.325300
H    4.139800   1.158300   1.427600
H    5.162100   0.073100   0.455200
H    1.800800   1.189700   1.112100
H    1.800800   1.189700  -0.667900
H    0.692400  -1.028400  -0.667900
H    0.692400  -1.028400   1.112100
H   -0.692400   1.028400   1.112100
H   -0.692400   1.028400  -0.667900
H   -1.800800  -1.189700  -0.667900
H   -1.800800  -1.189700   1.112100
H   -3.266900   0.262400  -1.870800
H   -4.184800   1.517600  -1.004600
H   -2.415500   1.648400  -1.148100
H   -4.139800  -1.158300   1.427600
H   -5.162100  -0.073100   0.455200
H   -4.301500  -1.421700  -0.325300

