%chk=830.chk
%mem=12GB
%nprocshared=18
#opt=loose def2SVP pop=nbo bp86 em=gd3bj

830

0 1
C    2.735400  -2.247400   0.458800
C    2.869200  -0.975100  -0.380400
N    1.865900   0.006000   0.054200
C    2.193600   1.349200  -0.442200
C    3.486600   1.834800   0.216000
C    0.517900  -0.397100  -0.368200
C   -0.523300   0.397400   0.422800
N   -1.870200   0.031000  -0.035000
C   -2.175100  -1.368100   0.293000
C   -3.381000  -1.832700  -0.526100
C   -2.881600   0.936000   0.527200
C   -2.838200   2.273200  -0.214900
H    2.895200  -2.007700   1.510000
H    1.736900  -2.664900   0.329100
H    3.478600  -2.976000   0.135200
H    3.867100  -0.556700  -0.249400
H    2.710900  -1.215100  -1.431900
H    2.327100   1.314400  -1.523400
H    1.382000   2.034700  -0.198200
H    4.298200   1.149300  -0.028000
H    3.729700   2.831400  -0.152400
H    3.353100   1.869600   1.297200
H    0.395800  -0.197100  -1.432700
H    0.381600  -1.462100  -0.180600
H   -0.425400   0.168800   1.484000
H   -0.363400   1.464000   0.264600
H   -1.313500  -1.992700   0.057300
H   -2.404000  -1.450700   1.355500
H   -4.225400  -1.169500  -0.337800
H   -3.130500  -1.809900  -1.586600
H   -3.646400  -2.849700  -0.237200
H   -3.870100   0.490300   0.415600
H   -2.674500   1.100300   1.584600
H   -3.537300   2.969100   0.249100
H   -1.829800   2.683900  -0.165000
H   -3.116700   2.119400  -1.257400

