%chk=85.chk
%mem=12GB
%nprocshared=18
#opt=loose def2SVP pop=nbo bp86 em=gd3bj

85

0 1
C   -6.731400   0.885100  -1.019100
C   -6.663500   0.032200   0.067800
C   -5.447000  -0.479000   0.472100
C   -4.285800  -0.134800  -0.217000
C   -2.975100  -0.681700   0.212700
C   -2.854800  -2.010300   0.632200
C   -1.618800  -2.483800   1.024900
N   -0.556700  -1.703900   1.009700
C   -0.622400  -0.437300   0.619800
C    0.605200   0.396600   0.622200
C    0.566000   1.729800   1.043000
C    1.728300   2.474700   1.032000
N    2.868500   1.948300   0.632100
C    2.954300   0.688600   0.224300
C    4.263300   0.146600  -0.215500
C    5.426800   0.483100   0.473700
C    6.641900  -0.024500   0.060300
C    6.706100  -0.865300  -1.036100
C    5.554400  -1.202700  -1.724000
C    4.333200  -0.705600  -1.316000
C    1.829400  -0.130800   0.210300
C   -1.829100   0.115000   0.203300
C   -4.360100   0.724400  -1.311500
C   -5.581900   1.230200  -1.706800
H   -7.686000   1.279600  -1.334700
H   -7.564100  -0.233900   0.601200
H   -5.395000  -1.144300   1.321300
H   -3.718700  -2.658300   0.649000
H   -1.521000  -3.509100   1.350000
H   -0.362800   2.171600   1.372500
H    1.702900   3.504700   1.355700
H    5.377900   1.140100   1.329400
H    7.544200   0.235700   0.593700
H    7.659100  -1.259700  -1.356500
H    5.610400  -1.859400  -2.579600
H    3.434600  -0.969600  -1.853700
H    1.901500  -1.156000  -0.121700
H   -1.880200   1.146100  -0.113900
H   -3.463300   0.994200  -1.849400
H   -5.640700   1.896200  -2.555000

