%chk=855.chk
%mem=12GB
%nprocshared=18
#opt=loose def2SVP pop=nbo bp86 em=gd3bj

855

0 1
C    4.348500  -1.062100  -0.077200
S    2.803000  -0.405800   0.609200
C    1.868700   0.070300  -0.871000
C    0.536600   0.643600  -0.461400
C    0.420500   1.999900  -0.230200
C   -0.809400   2.523100   0.146500
C   -1.882000   1.659800   0.277500
C   -1.693400   0.303700   0.028800
S   -3.048600  -0.810700   0.190800
C   -2.310900  -2.414000  -0.228200
N   -0.504900  -0.156200  -0.333700
H    4.999100  -1.384500   0.735700
H    4.127200  -1.911000  -0.724000
H    4.847900  -0.285000  -0.655900
H    2.430200   0.819100  -1.429800
H    1.709500  -0.807000  -1.497900
H    1.277800   2.647400  -0.341000
H   -0.925700   3.580500   0.333400
H   -2.852600   2.032900   0.569300
H   -3.070800  -3.192500  -0.160300
H   -1.916900  -2.378400  -1.243900
H   -1.501600  -2.634600   0.467900

