%chk=864.chk
%mem=12GB
%nprocshared=18
#opt=loose def2SVP pop=nbo bp86 em=gd3bj

864

0 1
O    3.614200  -0.004600   0.183100
C    2.229700   0.004400   0.536900
C    1.378400   0.006400  -0.734400
C   -0.081600   0.015900  -0.361200
C   -0.754800   1.216100  -0.190200
C   -2.097400   1.176500   0.153000
C   -2.716000  -0.049300   0.312200
N   -2.044200  -1.171000   0.141500
C   -0.767900  -1.171300  -0.190700
H    4.214000  -0.006400   0.941600
H    1.999700  -0.882900   1.126800
H    2.010200   0.897000   1.122600
H    1.608400   0.893600  -1.324300
H    1.597900  -0.886300  -1.320100
H   -0.245200   2.159300  -0.320900
H   -2.652800   2.091800   0.294600
H   -3.761500  -0.088800   0.579900
H   -0.250800  -2.110300  -0.322200

