%chk=882.chk
%mem=12GB
%nprocshared=18
#opt=loose def2SVP pop=nbo bp86 em=gd3bj

882

0 1
C   -3.156800   0.035600   0.006900
C   -2.507400  -1.153400  -0.294600
C   -1.123400  -1.167200  -0.298100
C   -0.435100   0.002700  -0.001400
N    0.963200   0.002700  -0.001900
C    1.778800   0.998500  -0.476100
C    3.046500   0.589600  -0.281900
N    3.013000  -0.621400   0.294400
C    1.771600  -0.981500   0.472800
N   -1.090200   1.116900   0.281100
C   -2.408500   1.160800   0.292200
H   -4.235800   0.081600   0.013900
H   -3.069200  -2.047600  -0.521000
H   -0.585700  -2.075200  -0.527900
H    1.464200   1.931400  -0.920300
H    3.937000   1.141200  -0.544800
H    1.441700  -1.909300   0.916400
H   -2.909000   2.088500   0.527000

