%chk=886.chk
%mem=12GB
%nprocshared=18
#opt=loose def2SVP pop=nbo bp86 em=gd3bj

886

0 1
C   -6.368900   0.116000  -0.557200
C   -6.026500   0.843700   0.587200
N   -4.798400   0.534600   0.915800
N   -4.319700  -0.400900  -0.010500
C   -2.987800  -1.011200  -0.009300
C   -1.923300   0.087700  -0.011600
C   -0.532400  -0.549700  -0.010300
C    0.532200   0.549200  -0.012600
C    1.923100  -0.088100  -0.011400
C    2.987700   1.010800  -0.013700
N    4.319500   0.400500  -0.012500
C    5.301900   0.636900  -0.906900
C    6.368500  -0.119000  -0.557500
C    6.026100  -0.842200   0.589700
N    4.800200  -0.527000   0.920800
C   -5.302200  -0.641100  -0.903800
H   -7.318400   0.149000  -1.070700
H   -6.665500   1.540300   1.109300
H   -2.871600  -1.627900   0.882000
H   -2.871600  -1.631500  -0.898000
H   -2.039600   0.704300  -0.902800
H   -2.039500   0.708000   0.877100
H   -0.416100  -1.166300   0.880900
H   -0.416100  -1.170000  -0.899000
H    0.415900   1.165900  -0.903900
H    0.416000   1.169600   0.876100
H    2.039400  -0.704800   0.879900
H    2.039300  -0.708400  -0.900100
H    2.871400   1.627400  -0.904900
H    2.871400   1.631100   0.875000
H    5.246700   1.308900  -1.750600
H    7.316500  -0.157400  -1.073500
H    6.664800  -1.537400   1.114200
H   -5.247300  -1.317000  -1.744400

