%chk=9.chk
%mem=12GB
%nprocshared=18
#opt=loose def2SVP pop=nbo bp86 em=gd3bj

9

0 1
O    0.637600  -2.681900   0.994500
N   -0.598500  -2.000800   0.879000
C   -0.688200  -0.936300   0.134400
C    0.472100  -0.499200  -0.675200
N    0.472800  -0.683000  -1.964300
O    1.516300  -0.144500  -2.755600
C    1.632200   0.147500  -0.018400
C    1.439300   0.972300   1.089500
C    2.523600   1.571800   1.696900
C    3.800000   1.356400   1.208600
C    3.997600   0.539600   0.109700
C    2.921800  -0.070700  -0.502100
C   -1.951300  -0.162600   0.097100
C   -3.081100  -0.634300   0.764600
C   -4.254400   0.091000   0.726600
C   -4.311400   1.283600   0.027800
C   -3.193800   1.756600  -0.636400
C   -2.013200   1.043100  -0.600900
H    0.625900  -3.413500   1.626700
H    1.430900  -0.333000  -3.700200
H    0.443300   1.141700   1.471100
H    2.375500   2.210700   2.554900
H    4.645600   1.828100   1.687100
H    4.996300   0.375500  -0.267200
H    3.077200  -0.708100  -1.360000
H   -3.038000  -1.565500   1.309900
H   -5.130100  -0.273300   1.243200
H   -5.232100   1.847400   0.000300
H   -3.244300   2.688300  -1.180300
H   -1.141400   1.413400  -1.119800

