%chk=903.chk
%mem=12GB
%nprocshared=18
#opt=loose def2SVP pop=nbo bp86 em=gd3bj

903

0 1
N    4.960500   0.006200   0.233300
C    3.584600  -0.083600   0.740200
C    2.601600   0.094700  -0.418600
N    1.225700   0.004900   0.088300
C    0.252200   0.171900  -0.999000
C   -1.144700   0.074000  -0.442100
C   -1.825000   1.226700  -0.097000
C   -3.109600   1.125600   0.414100
C   -3.664600  -0.136800   0.559600
C   -2.923900  -1.244300   0.193000
N   -1.705900  -1.110000  -0.294600
H    5.629200  -0.108500   0.980200
H    5.119900  -0.666900  -0.501300
H    3.430100  -1.059300   1.200800
H    3.418600   0.698400   1.481100
H    2.756100   1.070400  -0.879200
H    2.767600  -0.687300  -1.159500
H    1.076400  -0.865200   0.576800
H    0.390400   1.148200  -1.463700
H    0.401900  -0.609500  -1.744000
H   -1.361300   2.193900  -0.223600
H   -3.664900   2.009100   0.692600
H   -4.662900  -0.253100   0.954800
H   -3.349000  -2.231000   0.303200

