%chk=909.chk
%mem=12GB
%nprocshared=18
#opt=loose def2SVP pop=nbo bp86 em=gd3bj

909

0 1
C    6.456300  -2.133500   0.263600
C    5.880500  -2.005500  -0.991400
C    4.919800  -1.023900  -1.179500
C    4.570300  -0.211200  -0.117400
C    3.526800   0.858800  -0.310200
N    2.218400   0.345000   0.102600
C    1.093700   1.157100   0.015100
C    1.217500   2.457000  -0.465400
C    0.090200   3.254000  -0.547100
C   -1.127900   2.722600  -0.144000
C   -1.178000   1.424700   0.322800
C   -2.496900   0.842600   0.761700
N   -3.096100   0.098600  -0.349000
C   -4.323700  -0.531500  -0.181500
C   -4.978200  -0.451600   1.043800
C   -6.199000  -1.083200   1.196600
C   -6.726700  -1.776300   0.115000
C   -6.023100  -1.814500  -1.071900
N   -4.862400  -1.197800  -1.190800
N   -0.086800   0.685100   0.384800
N    5.139000  -0.361700   1.062600
C    6.056300  -1.284500   1.277800
H    7.204800  -2.890200   0.447200
H    6.173700  -2.654800  -1.803000
H    4.450600  -0.895600  -2.143700
H    3.782600   1.729000   0.294200
H    3.489600   1.144800  -1.361400
H    2.137000  -0.561900   0.437000
H    2.180800   2.838500  -0.770200
H    0.155800   4.267000  -0.915800
H   -2.026900   3.319000  -0.194900
H   -2.334900   0.170000   1.604000
H   -3.167100   1.647600   1.063200
H   -2.636100   0.045600  -1.201400
H   -4.538700   0.095900   1.864400
H   -6.729900  -1.038700   2.136100
H   -7.677800  -2.280600   0.201700
H   -6.429800  -2.352300  -1.915500
H    6.499700  -1.378000   2.258200

