%chk=947.chk
%mem=12GB
%nprocshared=18
#opt=loose def2SVP pop=nbo bp86 em=gd3bj

947

0 1
C    5.028400   0.060800   0.000000
C    3.679200  -0.660600   0.000700
N    2.597300   0.327200   0.000100
N    1.261900  -0.096500   0.000500
C    0.303300   0.778800  -0.000100
C   -1.101400   0.333100   0.000400
C   -2.129400   1.279500  -0.000200
C   -3.441900   0.844800   0.000200
C   -3.688300  -0.522000   0.001200
C   -2.624100  -1.404300   0.001700
N   -1.381400  -0.966400  -0.004200
H    5.106700   0.685900   0.889600
H    5.833400  -0.674100   0.000500
H    5.106500   0.684600  -0.890400
H    3.601000  -1.285700  -0.888900
H    3.601100  -1.284400   0.891100
H    2.805500   1.274600  -0.000600
H    0.535100   1.833600  -0.000800
H   -1.902000   2.335300  -0.000600
H   -4.257700   1.552600   0.000100
H   -4.702800  -0.892500   0.001900
H   -2.813900  -2.467400   0.002500

