%chk=958.chk
%mem=12GB
%nprocshared=18
#opt=loose def2SVP pop=nbo bp86 em=gd3bj

958

0 1
N    3.664600  -0.066500   0.000100
N    2.296400  -0.367800   0.000800
C    1.420800   0.590300  -0.000100
C   -0.018700   0.273300   0.000600
C   -0.981000   1.292200  -0.000300
C   -2.316300   0.949800  -0.000100
N   -2.691800  -0.315500   0.000800
C   -1.819400  -1.305900   0.001700
C   -0.463800  -1.055700  -0.003800
H    3.957500   0.858200  -0.000900
H    4.318900  -0.782500   0.004800
H    1.746900   1.619900  -0.001300
H   -0.681000   2.329800  -0.000800
H   -3.065500   1.727600  -0.000400
H   -2.172500  -2.326500   0.002500
H    0.244300  -1.871100  -0.003100

