%chk=988.chk
%mem=12GB
%nprocshared=18
#opt=loose def2SVP pop=nbo bp86 em=gd3bj

988

0 1
O   -2.455900  -2.324700   0.187000
N   -2.382300  -1.109100   0.210400
C   -1.194300  -0.511700   0.122500
N   -0.082700  -1.228100   0.009000
C    1.116200  -0.650000  -0.016600
C    2.273900  -1.427700  -0.242400
C    3.492400  -0.825600  -0.310100
C    3.620700   0.550600  -0.139300
C    2.514500   1.331700   0.124100
C    1.260200   0.743700   0.208200
N    0.148000   1.496900   0.538800
C   -1.087300   0.972900   0.143300
N   -2.088100   1.741000  -0.179200
O   -3.321500   1.168500  -0.574100
H    2.192000  -2.498100  -0.360700
H    4.372000  -1.423100  -0.498600
H    4.595100   1.010400  -0.213400
H    2.624100   2.397000   0.264000
H   -4.003800   1.817400  -0.794200
H    0.221200   2.339300   1.014200

