%chk=993.chk
%mem=12GB
%nprocshared=18
#opt=loose def2SVP pop=nbo bp86 em=gd3bj

993

0 1
C   -3.489000   0.031500   0.011300
C   -2.841100  -1.122100  -0.406700
C   -1.456800  -1.137300  -0.412100
C   -0.765800  -0.000100  -0.000100
C    0.718000  -0.000300  -0.000600
C    1.435800   1.127900  -0.406900
C    2.815200   1.085200  -0.391600
N    3.454600  -0.000200  -0.000800
C    2.815200  -1.085700   0.390100
C    1.435800  -1.126600   0.410600
N   -1.423200   1.083000   0.392400
C   -2.739800   1.124300   0.407300
H   -4.568000   0.077000   0.023100
H   -3.404100  -1.988800  -0.720300
H   -0.920200  -2.018600  -0.731100
H    0.918700   2.019900  -0.728400
H    3.378600   1.952000  -0.704100
H    3.378700  -1.952700   0.701800
H    0.918800  -2.018600   0.732100
H   -3.240800   2.024000   0.732900

